(declare-fun temp167_1 () (_ BitVec 64))
(declare-fun temp167_2 () (_ BitVec 64))
(declare-fun temp167_3 () (_ BitVec 64))
(declare-fun ARGNAME_y_NAMEEND_DIMSIZE () (Array (_ BitVec 64) (_ BitVec 64)))
(declare-fun temp167_4 () (_ BitVec 64))
(declare-fun temp167_5 () (_ BitVec 64))
(declare-fun temp167_6 () (_ BitVec 64))
(declare-fun temp167_7 () (_ BitVec 64))
(declare-fun temp167_8 () (_ BitVec 64))
(declare-fun temp167_9 () (_ BitVec 64))
(declare-fun temp167_10 () (_ BitVec 64))
(declare-fun temp167_11 () (_ BitVec 64))
(declare-fun temp167_12 () (_ BitVec 64))
(declare-fun temp167_13 () (_ BitVec 64))
(declare-fun temp167_14 () (_ BitVec 64))
(declare-fun temp167_15 () (_ BitVec 64))
(declare-fun temp167_16 () (_ BitVec 64))
(declare-fun temp167_17 () (_ BitVec 64))
(declare-fun temp167_18 () (_ BitVec 64))
(declare-fun temp167_19 () (_ BitVec 64))
(declare-fun temp167_20 () (_ BitVec 64))
(declare-fun var66228 () (_ BitVec 64))
(declare-fun ARGNAME_y_NAMEEND_DIM () (_ BitVec 64))
(declare-fun temp167_21 () (_ BitVec 64))
(declare-fun var66232 () (_ BitVec 64))
(declare-fun temp167_22 () (_ BitVec 64))
(declare-fun temp167_23 () (_ BitVec 64))
(declare-fun var66235 () (_ BitVec 64))
(declare-fun k!0 () (_ BitVec 64))
(declare-fun k!1 () Bool)
(declare-fun temp167_24 () (_ BitVec 64))
(declare-fun ARGNAME_x_NAMEEND_DIM () (_ BitVec 64))
(declare-fun var66276 () (_ BitVec 64))
(declare-fun temp167_25 () (_ BitVec 64))
(declare-fun temp167_26 () (_ BitVec 64))
(declare-fun var65762 () (_ BitVec 64))
(declare-fun temp167_27 () (_ BitVec 64))
(declare-fun temp167_28 () (_ BitVec 64))
(declare-fun ARGNAME_x_NAMEEND_DIMSIZE () (Array (_ BitVec 64) (_ BitVec 64)))
(declare-fun temp167_29 () (_ BitVec 64))
(declare-fun temp167_30 () (_ BitVec 64))
(declare-fun temp167_31 () (_ BitVec 64))
(declare-fun temp167_32 () (_ BitVec 64))
(declare-fun temp167_33 () (_ BitVec 64))
(declare-fun temp167_34 () (_ BitVec 64))
(declare-fun temp167_35 () (_ BitVec 64))
(declare-fun temp167_36 () (_ BitVec 64))
(declare-fun temp167_37 () (_ BitVec 64))
(declare-fun temp167_38 () (_ BitVec 64))
(declare-fun temp167_39 () (_ BitVec 64))
(declare-fun temp167_40 () (_ BitVec 64))
(declare-fun temp167_41 () (_ BitVec 64))
(declare-fun temp167_42 () (_ BitVec 64))
(declare-fun temp167_43 () (_ BitVec 64))
(declare-fun temp167_44 () (_ BitVec 64))
(declare-fun temp167_45 () (_ BitVec 64))
(declare-fun temp167_46 () (_ BitVec 64))
(declare-fun temp167_47 () (_ BitVec 64))
(declare-fun var66279 () (_ BitVec 64))
(declare-fun temp167_48 () (_ BitVec 64))
(declare-fun temp167_49 () (_ BitVec 64))
(declare-fun temp167_50 () (_ BitVec 64))
(declare-fun var66280 () (_ BitVec 64))
(declare-fun var66281 () (_ BitVec 64))
(declare-fun temp167_51 () (_ BitVec 64))
(declare-fun temp167_53 () (_ BitVec 64))
(declare-fun temp167_52 () (_ BitVec 64))
(declare-fun temp167_54 () (_ BitVec 64))
(declare-fun var526834 () (_ BitVec 64))
(declare-fun var526836 () (_ BitVec 64))
(declare-fun var592572 () (_ BitVec 64))
(declare-fun var658116 () (_ BitVec 64))
(declare-fun temp167_55 () (_ BitVec 64))
(declare-fun var920184 () (_ BitVec 64))
(declare-fun temp167_56 () (_ BitVec 64))
(declare-fun temp167_57 () (_ BitVec 64))
(declare-fun temp167_58 () (_ BitVec 64))
(declare-fun temp167_59 () (_ BitVec 64))
(declare-fun var66309 () (_ BitVec 64))
(declare-fun temp167_61 () (_ BitVec 64))
(declare-fun temp167_60 () (_ BitVec 64))
(declare-fun temp167_63 () (_ BitVec 64))
(declare-fun temp167_62 () (_ BitVec 64))
(declare-fun temp167_64 () (_ BitVec 64))
(declare-fun var2032934 () (_ BitVec 64))
(declare-fun temp167_65 () (_ BitVec 64))
(declare-fun var2032968 () (_ BitVec 64))
(declare-fun temp167_66 () (_ BitVec 64))
(declare-fun temp167_68 () (_ BitVec 64))
(declare-fun temp167_67 () (_ BitVec 64))
(declare-fun temp167_69 () (_ BitVec 64))
(declare-fun var2491686 () (_ BitVec 64))
(declare-fun temp167_70 () (_ BitVec 64))
(declare-fun var2491720 () (_ BitVec 64))
(declare-fun temp167_71 () (_ BitVec 64))
(declare-fun var2491734 () (_ BitVec 64))
(declare-fun temp167_72 () (_ BitVec 64))
(declare-fun temp167_73 () (_ BitVec 64))
(assert (= temp167_1 #x0000000000000000))
(assert (= temp167_2 temp167_1))
(assert (= temp167_3 (select ARGNAME_y_NAMEEND_DIMSIZE temp167_2)))
(assert (= temp167_4 #x0000000000000001))
(assert (= temp167_5 temp167_4))
(assert (= temp167_6 (select ARGNAME_y_NAMEEND_DIMSIZE temp167_5)))
(assert (= temp167_7 #x0000000000000002))
(assert (= temp167_8 temp167_7))
(assert (= temp167_9 (select ARGNAME_y_NAMEEND_DIMSIZE temp167_8)))
(assert (= temp167_10 #x0000000000000003))
(assert (= temp167_11 temp167_10))
(assert (= temp167_12 (select ARGNAME_y_NAMEEND_DIMSIZE temp167_11)))
(assert (= temp167_13 #x0000000000000004))
(assert (= temp167_14 temp167_13))
(assert (= temp167_15 (select ARGNAME_y_NAMEEND_DIMSIZE temp167_14)))
(assert (= temp167_16 #x0000000000000005))
(assert (= temp167_17 temp167_16))
(assert (= temp167_18 (select ARGNAME_y_NAMEEND_DIMSIZE temp167_17)))
(assert (= temp167_19 #x0000000000000000))
(assert (= temp167_20
   (ite (bvslt var66228 temp167_19)
        (bvadd ARGNAME_y_NAMEEND_DIM var66228)
        var66228)))
(assert (= temp167_21 (select ARGNAME_y_NAMEEND_DIMSIZE temp167_20)))
(assert (= var66232 temp167_21))
(assert (bvslt (ite (bvslt var66228 temp167_19)
            (bvadd ARGNAME_y_NAMEEND_DIM var66228)
            var66228)
       ARGNAME_y_NAMEEND_DIM))
(assert (= temp167_22 #x0000000000000000))
(assert (= var66235 (ite (= var66232 temp167_22) #x0000000000000001 #x0000000000000000)))
(assert (= temp167_23 #x0000000000000000))
(assert (= var66235 temp167_23))
(assert (= temp167_24 #x0000000000000001))
(assert (= var66276
   (ite (= ARGNAME_x_NAMEEND_DIM temp167_24)
        #x0000000000000001
        #x0000000000000000)))
(assert (= temp167_25 #x0000000000000001))
(assert (= var66276 temp167_25))
(assert (= temp167_26 #x0000000000000000))
(assert (= var65762 temp167_26))
(assert (= temp167_27 #x0000000000000000))
(assert (= temp167_28 temp167_27))
(assert (= temp167_29 (select ARGNAME_x_NAMEEND_DIMSIZE temp167_28)))
(assert (= temp167_30 #x0000000000000001))
(assert (= temp167_31 temp167_30))
(assert (= temp167_32 (select ARGNAME_x_NAMEEND_DIMSIZE temp167_31)))
(assert (= temp167_33 #x0000000000000002))
(assert (= temp167_34 temp167_33))
(assert (= temp167_35 (select ARGNAME_x_NAMEEND_DIMSIZE temp167_34)))
(assert (= temp167_36 #x0000000000000003))
(assert (= temp167_37 temp167_36))
(assert (= temp167_38 (select ARGNAME_x_NAMEEND_DIMSIZE temp167_37)))
(assert (= temp167_39 #x0000000000000004))
(assert (= temp167_40 temp167_39))
(assert (= temp167_41 (select ARGNAME_x_NAMEEND_DIMSIZE temp167_40)))
(assert (= temp167_42 #x0000000000000005))
(assert (= temp167_43 temp167_42))
(assert (= temp167_44 (select ARGNAME_x_NAMEEND_DIMSIZE temp167_43)))
(assert (= temp167_45 #x0000000000000000))
(assert (= temp167_46
   (ite (bvslt var65762 temp167_45)
        (bvadd ARGNAME_x_NAMEEND_DIM var65762)
        var65762)))
(assert (= temp167_47 (select ARGNAME_x_NAMEEND_DIMSIZE temp167_46)))
(assert (= var66279 temp167_47))
(assert (bvslt (ite (bvslt var65762 temp167_45)
            (bvadd ARGNAME_x_NAMEEND_DIM var65762)
            var65762)
       ARGNAME_x_NAMEEND_DIM))
(assert (= temp167_48 #x0000000000000000))
(assert (= temp167_49
   (ite (bvslt var66228 temp167_48)
        (bvadd ARGNAME_y_NAMEEND_DIM var66228)
        var66228)))
(assert (= temp167_50 (select ARGNAME_y_NAMEEND_DIMSIZE temp167_49)))
(assert (= var66280 temp167_50))
(assert (bvslt (ite (bvslt var66228 temp167_48)
            (bvadd ARGNAME_y_NAMEEND_DIM var66228)
            var66228)
       ARGNAME_y_NAMEEND_DIM))
(assert (= var66281 (ite (= var66279 var66280) #x0000000000000001 #x0000000000000000)))
(assert (= temp167_51 #x0000000000000001))
(assert (= var66281 temp167_51))
(assert (= temp167_53 #x0000000000000001))
(assert (= temp167_52 temp167_53))
(assert (= temp167_54 #x0000000000000005))
(assert (= var526834 temp167_54))
(assert (= var526836 var526834))
(assert (= var592572 var526836))
(assert (= var658116 var592572))
(assert (= temp167_55 #x0000000000000000))
(assert (= var920184 temp167_55))
(assert (= temp167_56 #x0000000000000000))
(assert (= var65762 temp167_56))
(assert (= temp167_57 #x0000000000000000))
(assert (= temp167_58
   (ite (bvslt var65762 temp167_57)
        (bvadd ARGNAME_x_NAMEEND_DIM var65762)
        var65762)))
(assert (= temp167_59 (select ARGNAME_x_NAMEEND_DIMSIZE temp167_58)))
(assert (= var66309 temp167_59))
(assert (bvslt (ite (bvslt var65762 temp167_57)
            (bvadd ARGNAME_x_NAMEEND_DIM var65762)
            var65762)
       ARGNAME_x_NAMEEND_DIM))
(assert (= temp167_61 #x0000000000000000))
(assert (= temp167_60 temp167_61))
(assert (= temp167_63 #xffffffffffffffff))
(assert (= temp167_62 temp167_63))
(assert (= temp167_64 #x0000000000000001))
(assert (= var2032934 temp167_64))
(assert (= temp167_65 #x0000000000000000))
(assert (= var2032968 temp167_65))
(assert (= temp167_66 #x0000000000000000))
(assert (= var2032968 temp167_66))
(assert (= temp167_68 #x0000000000000001))
(assert (= temp167_67 temp167_68))
(assert (= temp167_69 #x0000000000000001))
(assert (= var2491686 temp167_69))
(assert (= temp167_70 #x0000000000000000))
(assert (= var2491720 temp167_70))
(assert (= temp167_71 #x0000000000000000))
(assert (= var2491734 temp167_71))
(assert (= temp167_72 #x0000000000000000))
(assert (= var2491734 temp167_72))
(assert (= temp167_73 #x0000000000000000))
(assert (= var2491720 temp167_73))
(model-add temp167_1 () (_ BitVec 64) #x0000000000000000)
(model-add temp167_2 () (_ BitVec 64) #x0000000000000000)
(model-add temp167_3
           ()
           (_ BitVec 64)
           (select ARGNAME_y_NAMEEND_DIMSIZE #x0000000000000000))
(model-add temp167_4 () (_ BitVec 64) #x0000000000000001)
(model-add temp167_5 () (_ BitVec 64) #x0000000000000001)
(model-add temp167_6
           ()
           (_ BitVec 64)
           (select ARGNAME_y_NAMEEND_DIMSIZE #x0000000000000001))
(model-add temp167_7 () (_ BitVec 64) #x0000000000000002)
(model-add temp167_8 () (_ BitVec 64) #x0000000000000002)
(model-add temp167_9
           ()
           (_ BitVec 64)
           (select ARGNAME_y_NAMEEND_DIMSIZE #x0000000000000002))
(model-add temp167_10 () (_ BitVec 64) #x0000000000000003)
(model-add temp167_11 () (_ BitVec 64) #x0000000000000003)
(model-add temp167_12
           ()
           (_ BitVec 64)
           (select ARGNAME_y_NAMEEND_DIMSIZE #x0000000000000003))
(model-add temp167_13 () (_ BitVec 64) #x0000000000000004)
(model-add temp167_14 () (_ BitVec 64) #x0000000000000004)
(model-add temp167_15
           ()
           (_ BitVec 64)
           (select ARGNAME_y_NAMEEND_DIMSIZE #x0000000000000004))
(model-add temp167_16 () (_ BitVec 64) #x0000000000000005)
(model-add temp167_17 () (_ BitVec 64) #x0000000000000005)
(model-add temp167_18
           ()
           (_ BitVec 64)
           (select ARGNAME_y_NAMEEND_DIMSIZE #x0000000000000005))
(model-add temp167_19 () (_ BitVec 64) #x0000000000000000)
(model-add temp167_20
           ()
           (_ BitVec 64)
           (ite (bvsle #x0000000000000000 var66228)
                var66228
                (bvadd ARGNAME_y_NAMEEND_DIM var66228)))
(model-add temp167_21
           ()
           (_ BitVec 64)
           (select ARGNAME_y_NAMEEND_DIMSIZE
                   (ite (bvsle #x0000000000000000 var66228)
                        var66228
                        (bvadd ARGNAME_y_NAMEEND_DIM var66228))))
(model-add var66232
           ()
           (_ BitVec 64)
           (select ARGNAME_y_NAMEEND_DIMSIZE
                   (ite (bvsle #x0000000000000000 var66228)
                        var66228
                        (bvadd ARGNAME_y_NAMEEND_DIM var66228))))
(model-add temp167_22 () (_ BitVec 64) #x0000000000000000)
(model-add temp167_23 () (_ BitVec 64) #x0000000000000000)
(model-add var66235 () (_ BitVec 64) #x0000000000000000)
(model-del k!0)
(model-add ARGNAME_y_NAMEEND_DIMSIZE
           ()
           (Array (_ BitVec 64) (_ BitVec 64))
           ((as const (Array (_ BitVec 64) (_ BitVec 64))) k!0))
(model-del k!1)
(model-add k!0
           ()
           (_ BitVec 64)
           (ite k!1 #x0000000000000000 (bvnot #x0000000000000000)))



